objective value:                      1.7438335174264
x(0,12,0)                                           1 	(obj:0)
x(1,14,1)                                           1 	(obj:0)
x(2,3,0)                                            1 	(obj:0)
x(3,0,0)                                            1 	(obj:0)
x(4,8,1)                                            1 	(obj:0)
x(8,1,1)                                            1 	(obj:0)
x(12,2,0)                                           1 	(obj:0)
x(14,4,1)                                           1 	(obj:0)
xc(0,9)                                             1 	(obj:0)
xc(1,0)                                             1 	(obj:0)
xc(4,14)                                            1 	(obj:0)
u(0,0)                                1.0267796872644 	(obj:0)
u(1,1)                                1.0315578181802 	(obj:0)
u(2,1)                                1.7438335174264 	(obj:0)
u(3,0)                              0.243917885566401 	(obj:0)
u(3,1)                                1.7438335174264 	(obj:0)
u(5,1)                                1.7438335174264 	(obj:0)
u(6,0)                                1.7438335174264 	(obj:0)
u(6,1)                                1.7438335174264 	(obj:0)
u(7,1)                                1.7438335174264 	(obj:0)
u(8,1)                              0.946957603876301 	(obj:0)
u(9,1)                                1.7438335174264 	(obj:0)
u(10,0)                               1.7438335174264 	(obj:0)
u(10,1)                               1.7438335174264 	(obj:0)
u(11,0)                               1.7438335174264 	(obj:0)
u(11,1)                               1.7438335174264 	(obj:0)
u(12,0)                               1.7438335174264 	(obj:0)
u(12,1)                               1.7438335174264 	(obj:0)
u(13,0)                               1.7438335174264 	(obj:0)
u(13,1)                               1.7438335174264 	(obj:0)
u(14,0)                               1.7438335174264 	(obj:0)
u(14,1)                               1.7438335174264 	(obj:0)
u(15,0)                               1.7438335174264 	(obj:0)
u(15,1)                               1.7438335174264 	(obj:0)
u(16,0)                               1.7438335174264 	(obj:0)
u(16,1)                               1.7438335174264 	(obj:0)
u(17,0)                               1.7438335174264 	(obj:0)
u(17,1)                               1.7438335174264 	(obj:0)
u(18,0)                               1.7438335174264 	(obj:0)
u(18,1)                               1.7438335174264 	(obj:0)
u(19,0)                               1.7438335174264 	(obj:0)
u(19,1)                               1.7438335174264 	(obj:0)
f(0,9,0)                                            1 	(obj:0)
f(0,9,1)                                            1 	(obj:0)
f(0,9,2)                                            1 	(obj:0)
f(0,9,3)                                            1 	(obj:0)
f(0,9,4)                                            1 	(obj:0)
f(0,12,0)                                           1 	(obj:0)
f(0,12,1)                                           1 	(obj:0)
f(1,0,1)                                            1 	(obj:0)
f(1,0,4)                                            1 	(obj:0)
f(2,3,0)                                            1 	(obj:0)
f(2,3,1)                                            1 	(obj:0)
f(2,3,2)                                            1 	(obj:0)
f(3,0,0)                                            1 	(obj:0)
f(3,0,1)                                            1 	(obj:0)
f(3,0,2)                                            1 	(obj:0)
f(3,0,3)                                            1 	(obj:0)
f(4,8,4)                                            1 	(obj:0)
f(4,14,0)                                           1 	(obj:0)
f(4,14,4)                                           1 	(obj:0)
f(8,1,4)                                            1 	(obj:0)
f(12,2,0)                                           1 	(obj:0)
f(12,2,1)                                           1 	(obj:0)
f(14,4,0)                                           1 	(obj:0)
f(14,4,4)                                           1 	(obj:0)
z_r(0,)                               1.7438335174264 	(obj:0)
z_r(1,)                               1.7438335174264 	(obj:0)
z                                     1.7438335174264 	(obj:1)
